10
0   1047   200   277   1168   575   1067   1109   217   22   
1047   0   1076   14   976   1037   1073   527   304   352   
200   1076   0   1049   49   149   325   100   1001   1721   
277   14   1049   0   591   705   165   618   123   1086   
1168   976   49   591   0   597   456   19   365   147   
575   1037   149   705   597   0   0   422   51   49   
1067   1073   325   165   456   0   0   397   202   225   
1109   527   100   618   19   422   397   0   333   1117   
217   304   1001   123   365   51   202   333   0   970   
22   352   1721   1086   147   49   225   1117   970   0   
0   1   200   0   221   2215   0   2   479   0   
0   0   0   0   229   295   0   0   0   1   
0   1083   0   34   0   0   4   0   44   899   
0   0   0   0   1   10   978   1879   2124   1438   
289   0   173   0   0   0   0   2037   7989   0   
0   0   0   0   3213   0   0   0   0   20   
0   1823   0   0   0   0   0   17   0   948   
1   0   0   0   1   0   0   0   0   2960   
0   4073   0   0   0   2278   0   0   0   187   
1429   0   24   5   0   2272   87   660   0   0   
